Maximize
obj: x05 + x16 + x24 + x36 + x41 + x50 + x65 + x77 + x85 + x92 + x106 + x07 + x15 + x20 + x35 + x46 + x57 + x67 + x70 + x87 + x96 + x104
Subject To
c1: x05 + x07 <= 1
c2: x16 + x15 <= 1
c3: x24 + x20 <= 1
c4: x36 + x35 <= 1
c5: x41 + x46 <= 1
c6: x50 + x57 <= 1
c7: x65 + x67 <= 1
c8: x77 + x70 <= 1
c9: x85 + x87 <= 1
c10: x92 + x96 <= 1
c11: x106 + x104 <= 1
c12: x50 + x20 + x70 <= 0
c13: x41 <= 7
c14: x92 <= 9
c15: x24 + x104 <= 4
c16: x05 + x65 + x85 + x15 + x35 <= 3
c17: x16 + x36 + x106 + x46 + x96 <= 1
c18: x77 + x07 + x57 + x67 + x87 <= 0
Binary 
x05 x16 x24 x36 x41 x50 x65 x77 x85 x92 x106 x07 x15 x20 x35 x46 x57 x67 x70 x87 x96 x104 
End